TCS_Benchmarks/redos_fix/regexlib2_output_distinct_2920_2919_0_0.smt2
(set-logic QF_S)
(declare-const x String)
(assert (str.in.re x (re.inter (re.*  (re.++ (re.+  (re.union  (str.to.re "\u{20}")  (str.to_re "\u{09}")) ) (re.++ (re.opt  (re.union  (str.to.re "\u{2b}") (re.union  (str.to.re "\u{2d}") (re.union  (str.to.re "\u{7e}")  (str.to.re "\u{3f}")))) ) (re.opt (re.opt  (re.union  (re.++  (str.to.re "\u{61}") (re.++  (str.to.re "\u{6c}")  (str.to.re "\u{6c}"))) (re.union  (re.++  (str.to.re "\u{69}") (re.++  (str.to.re "\u{70}") (re.++  (str.to.re "\u{34}") (re.++ (re.opt  (re.++  (str.to.re "\u{3a}") (re.++  (re.union  (re.range "\u{30}" "\u{39}") (re.union  (re.++ (re.range "\u{30}" "\u{39}")   (re.range "\u{30}" "\u{39}"))  (re.++ (re.range "\u{30}" "\u{39}")   (re.++ (re.range "\u{30}" "\u{39}")   (re.range "\u{30}" "\u{39}"))))) (re.++  (str.to.re "\u{2e}") (re.++  (re.union  (re.range "\u{30}" "\u{39}") (re.union  (re.++ (re.range "\u{30}" "\u{39}")   (re.range "\u{30}" "\u{39}"))  (re.++ (re.range "\u{30}" "\u{39}")   (re.++ (re.range "\u{30}" "\u{39}")   (re.range "\u{30}" "\u{39}"))))) (re.++  (str.to.re "\u{2e}") (re.++  (re.union  (re.range "\u{30}" "\u{39}") (re.union  (re.++ (re.range "\u{30}" "\u{39}")   (re.range "\u{30}" "\u{39}"))  (re.++ (re.range "\u{30}" "\u{39}")   (re.++ (re.range "\u{30}" "\u{39}")   (re.range "\u{30}" "\u{39}"))))) (re.++  (str.to.re "\u{2e}")  (re.union  (re.range "\u{30}" "\u{39}") (re.union  (re.++ (re.range "\u{30}" "\u{39}")   (re.range "\u{30}" "\u{39}"))  (re.++ (re.range "\u{30}" "\u{39}")   (re.++ (re.range "\u{30}" "\u{39}")   (re.range "\u{30}" "\u{39}")))))))))))) ) (re.opt  (re.++  (str.to.re "\u{2f}")  (re.union  (re.range "\u{30}" "\u{39}")  (re.++ (re.range "\u{30}" "\u{39}")   (re.range "\u{30}" "\u{39}")))) ))))) (re.union  (re.++  (str.to.re "\u{69}") (re.++  (str.to.re "\u{70}") (re.++  (str.to.re "\u{36}") (re.++ (re.opt  (re.++  (str.to.re "\u{3a}") (re.++  (re.++  (re.++  (re.union   (re.union (re.range "\u{41}" "\u{46}") (re.union (re.range "\u{61}" "\u{66}") (re.range "\u{30}" "\u{39}"))) (re.union  (re.++  (re.union (re.range "\u{41}" "\u{46}") (re.union (re.range "\u{61}" "\u{66}") (re.range "\u{30}" "\u{39}")))    (re.union (re.range "\u{41}" "\u{46}") (re.union (re.range "\u{61}" "\u{66}") (re.range "\u{30}" "\u{39}")))) (re.union  (re.++  (re.union (re.range "\u{41}" "\u{46}") (re.union (re.range "\u{61}" "\u{66}") (re.range "\u{30}" "\u{39}")))   (re.++  (re.union (re.range "\u{41}" "\u{46}") (re.union (re.range "\u{61}" "\u{66}") (re.range "\u{30}" "\u{39}")))    (re.union (re.range "\u{41}" "\u{46}") (re.union (re.range "\u{61}" "\u{66}") (re.range "\u{30}" "\u{39}")))))  (re.++  (re.union (re.range "\u{41}" "\u{46}") (re.union (re.range "\u{61}" "\u{66}") (re.range "\u{30}" "\u{39}")))   (re.++  (re.union (re.range "\u{41}" "\u{46}") (re.union (re.range "\u{61}" "\u{66}") (re.range "\u{30}" "\u{39}")))   (re.++  (re.union (re.range "\u{41}" "\u{46}") (re.union (re.range "\u{61}" "\u{66}") (re.range "\u{30}" "\u{39}")))    (re.union (re.range "\u{41}" "\u{46}") (re.union (re.range "\u{61}" "\u{66}") (re.range "\u{30}" "\u{39}")))))))))  (str.to.re "\u{3a}")) (re.++  (re.++  (re.union   (re.union (re.range "\u{41}" "\u{46}") (re.union (re.range "\u{61}" "\u{66}") (re.range "\u{30}" "\u{39}"))) (re.union  (re.++  (re.union (re.range "\u{41}" "\u{46}") (re.union (re.range "\u{61}" "\u{66}") (re.range "\u{30}" "\u{39}")))    (re.union (re.range "\u{41}" "\u{46}") (re.union (re.range "\u{61}" "\u{66}") (re.range "\u{30}" "\u{39}")))) (re.union  (re.++  (re.union (re.range "\u{41}" "\u{46}") (re.union (re.range "\u{61}" "\u{66}") (re.range "\u{30}" "\u{39}")))   (re.++  (re.union (re.range "\u{41}" "\u{46}") (re.union (re.range "\u{61}" "\u{66}") (re.range "\u{30}" "\u{39}")))    (re.union (re.range "\u{41}" "\u{46}") (re.union (re.range "\u{61}" "\u{66}") (re.range "\u{30}" "\u{39}")))))  (re.++  (re.union (re.range "\u{41}" "\u{46}") (re.union (re.range "\u{61}" "\u{66}") (re.range "\u{30}" "\u{39}")))   (re.++  (re.union (re.range "\u{41}" "\u{46}") (re.union (re.range "\u{61}" "\u{66}") (re.range "\u{30}" "\u{39}")))   (re.++  (re.union (re.range "\u{41}" "\u{46}") (re.union (re.range "\u{61}" "\u{66}") (re.range "\u{30}" "\u{39}")))    (re.union (re.range "\u{41}" "\u{46}") (re.union (re.range "\u{61}" "\u{66}") (re.range "\u{30}" "\u{39}")))))))))  (str.to.re "\u{3a}")) (re.++  (re.++  (re.union   (re.union (re.range "\u{41}" "\u{46}") (re.union (re.range "\u{61}" "\u{66}") (re.range "\u{30}" "\u{39}"))) (re.union  (re.++  (re.union (re.range "\u{41}" "\u{46}") (re.union (re.range "\u{61}" "\u{66}") (re.range "\u{30}" "\u{39}")))    (re.union (re.range "\u{41}" "\u{46}") (re.union (re.range "\u{61}" "\u{66}") (re.range "\u{30}" "\u{39}")))) (re.union  (re.++  (re.union (re.range "\u{41}" "\u{46}") (re.union (re.range "\u{61}" "\u{66}") (re.range "\u{30}" "\u{39}")))   (re.++  (re.union (re.range "\u{41}" "\u{46}") (re.union (re.range "\u{61}" "\u{66}") (re.range "\u{30}" "\u{39}")))    (re.union (re.range "\u{41}" "\u{46}") (re.union (re.range "\u{61}" "\u{66}") (re.range "\u{30}" "\u{39}")))))  (re.++  (re.union (re.range "\u{41}" "\u{46}") (re.union (re.range "\u{61}" "\u{66}") (re.range "\u{30}" "\u{39}")))   (re.++  (re.union (re.range "\u{41}" "\u{46}") (re.union (re.range "\u{61}" "\u{66}") (re.range "\u{30}" "\u{39}")))   (re.++  (re.union (re.range "\u{41}" "\u{46}") (re.union (re.range "\u{61}" "\u{66}") (re.range "\u{30}" "\u{39}")))    (re.union (re.range "\u{41}" "\u{46}") (re.union (re.range "\u{61}" "\u{66}") (re.range "\u{30}" "\u{39}")))))))))  (str.to.re "\u{3a}")) (re.++  (re.++  (re.union   (re.union (re.range "\u{41}" "\u{46}") (re.union (re.range "\u{61}" "\u{66}") (re.range "\u{30}" "\u{39}"))) (re.union  (re.++  (re.union (re.range "\u{41}" "\u{46}") (re.union (re.range "\u{61}" "\u{66}") (re.range "\u{30}" "\u{39}")))    (re.union (re.range "\u{41}" "\u{46}") (re.union (re.range "\u{61}" "\u{66}") (re.range "\u{30}" "\u{39}")))) (re.union  (re.++  (re.union (re.range "\u{41}" "\u{46}") (re.union (re.range "\u{61}" "\u{66}") (re.range "\u{30}" "\u{39}")))   (re.++  (re.union (re.range "\u{41}" "\u{46}") (re.union (re.range "\u{61}" "\u{66}") (re.range "\u{30}" "\u{39}")))    (re.union (re.range "\u{41}" "\u{46}") (re.union (re.range "\u{61}" "\u{66}") (re.range "\u{30}" "\u{39}")))))  (re.++  (re.union (re.range "\u{41}" "\u{46}") (re.union (re.range "\u{61}" "\u{66}") (re.range "\u{30}" "\u{39}")))   (re.++  (re.union (re.range "\u{41}" "\u{46}") (re.union (re.range "\u{61}" "\u{66}") (re.range "\u{30}" "\u{39}")))   (re.++  (re.union (re.range "\u{41}" "\u{46}") (re.union (re.range "\u{61}" "\u{66}") (re.range "\u{30}" "\u{39}")))    (re.union (re.range "\u{41}" "\u{46}") (re.union (re.range "\u{61}" "\u{66}") (re.range "\u{30}" "\u{39}")))))))))  (str.to.re "\u{3a}")) (re.++  (re.++  (re.union   (re.union (re.range "\u{41}" "\u{46}") (re.union (re.range "\u{61}" "\u{66}") (re.range "\u{30}" "\u{39}"))) (re.union  (re.++  (re.union (re.range "\u{41}" "\u{46}") (re.union (re.range "\u{61}" "\u{66}") (re.range "\u{30}" "\u{39}")))    (re.union (re.range "\u{41}" "\u{46}") (re.union (re.range "\u{61}" "\u{66}") (re.range "\u{30}" "\u{39}")))) (re.union  (re.++  (re.union (re.range "\u{41}" "\u{46}") (re.union (re.range "\u{61}" "\u{66}") (re.range "\u{30}" "\u{39}")))   (re.++  (re.union (re.range "\u{41}" "\u{46}") (re.union (re.range "\u{61}" "\u{66}") (re.range "\u{30}" "\u{39}")))    (re.union (re.range "\u{41}" "\u{46}") (re.union (re.range "\u{61}" "\u{66}") (re.range "\u{30}" "\u{39}")))))  (re.++  (re.union (re.range "\u{41}" "\u{46}") (re.union (re.range "\u{61}" "\u{66}") (re.range "\u{30}" "\u{39}")))   (re.++  (re.union (re.range "\u{41}" "\u{46}") (re.union (re.range "\u{61}" "\u{66}") (re.range "\u{30}" "\u{39}")))   (re.++  (re.union (re.range "\u{41}" "\u{46}") (re.union (re.range "\u{61}" "\u{66}") (re.range "\u{30}" "\u{39}")))    (re.union (re.range "\u{41}" "\u{46}") (re.union (re.range "\u{61}" "\u{66}") (re.range "\u{30}" "\u{39}")))))))))  (str.to.re "\u{3a}")) (re.++  (re.++  (re.union   (re.union (re.range "\u{41}" "\u{46}") (re.union (re.range "\u{61}" "\u{66}") (re.range "\u{30}" "\u{39}"))) (re.union  (re.++  (re.union (re.range "\u{41}" "\u{46}") (re.union (re.range "\u{61}" "\u{66}") (re.range "\u{30}" "\u{39}")))    (re.union (re.range "\u{41}" "\u{46}") (re.union (re.range "\u{61}" "\u{66}") (re.range "\u{30}" "\u{39}")))) (re.union  (re.++  (re.union (re.range "\u{41}" "\u{46}") (re.union (re.range "\u{61}" "\u{66}") (re.range "\u{30}" "\u{39}")))   (re.++  (re.union (re.range "\u{41}" "\u{46}") (re.union (re.range "\u{61}" "\u{66}") (re.range "\u{30}" "\u{39}")))    (re.union (re.range "\u{41}" "\u{46}") (re.union (re.range "\u{61}" "\u{66}") (re.range "\u{30}" "\u{39}")))))  (re.++  (re.union (re.range "\u{41}" "\u{46}") (re.union (re.range "\u{61}" "\u{66}") (re.range "\u{30}" "\u{39}")))   (re.++  (re.union (re.range "\u{41}" "\u{46}") (re.union (re.range "\u{61}" "\u{66}") (re.range "\u{30}" "\u{39}")))   (re.++  (re.union (re.range "\u{41}" "\u{46}") (re.union (re.range "\u{61}" "\u{66}") (re.range "\u{30}" "\u{39}")))    (re.union (re.range "\u{41}" "\u{46}") (re.union (re.range "\u{61}" "\u{66}") (re.range "\u{30}" "\u{39}")))))))))  (str.to.re "\u{3a}"))  (re.++  (re.union   (re.union (re.range "\u{41}" "\u{46}") (re.union (re.range "\u{61}" "\u{66}") (re.range "\u{30}" "\u{39}"))) (re.union  (re.++  (re.union (re.range "\u{41}" "\u{46}") (re.union (re.range "\u{61}" "\u{66}") (re.range "\u{30}" "\u{39}")))    (re.union (re.range "\u{41}" "\u{46}") (re.union (re.range "\u{61}" "\u{66}") (re.range "\u{30}" "\u{39}")))) (re.union  (re.++  (re.union (re.range "\u{41}" "\u{46}") (re.union (re.range "\u{61}" "\u{66}") (re.range "\u{30}" "\u{39}")))   (re.++  (re.union (re.range "\u{41}" "\u{46}") (re.union (re.range "\u{61}" "\u{66}") (re.range "\u{30}" "\u{39}")))    (re.union (re.range "\u{41}" "\u{46}") (re.union (re.range "\u{61}" "\u{66}") (re.range "\u{30}" "\u{39}")))))  (re.++  (re.union (re.range "\u{41}" "\u{46}") (re.union (re.range "\u{61}" "\u{66}") (re.range "\u{30}" "\u{39}")))   (re.++  (re.union (re.range "\u{41}" "\u{46}") (re.union (re.range "\u{61}" "\u{66}") (re.range "\u{30}" "\u{39}")))   (re.++  (re.union (re.range "\u{41}" "\u{46}") (re.union (re.range "\u{61}" "\u{66}") (re.range "\u{30}" "\u{39}")))    (re.union (re.range "\u{41}" "\u{46}") (re.union (re.range "\u{61}" "\u{66}") (re.range "\u{30}" "\u{39}")))))))))  (str.to.re "\u{3a}"))))))))  (re.union   (re.union (re.range "\u{41}" "\u{46}") (re.union (re.range "\u{61}" "\u{66}") (re.range "\u{30}" "\u{39}"))) (re.union  (re.++  (re.union (re.range "\u{41}" "\u{46}") (re.union (re.range "\u{61}" "\u{66}") (re.range "\u{30}" "\u{39}")))    (re.union (re.range "\u{41}" "\u{46}") (re.union (re.range "\u{61}" "\u{66}") (re.range "\u{30}" "\u{39}")))) (re.union  (re.++  (re.union (re.range "\u{41}" "\u{46}") (re.union (re.range "\u{61}" "\u{66}") (re.range "\u{30}" "\u{39}")))   (re.++  (re.union (re.range "\u{41}" "\u{46}") (re.union (re.range "\u{61}" "\u{66}") (re.range "\u{30}" "\u{39}")))    (re.union (re.range "\u{41}" "\u{46}") (re.union (re.range "\u{61}" "\u{66}") (re.range "\u{30}" "\u{39}")))))  (re.++  (re.union (re.range "\u{41}" "\u{46}") (re.union (re.range "\u{61}" "\u{66}") (re.range "\u{30}" "\u{39}")))   (re.++  (re.union (re.range "\u{41}" "\u{46}") (re.union (re.range "\u{61}" "\u{66}") (re.range "\u{30}" "\u{39}")))   (re.++  (re.union (re.range "\u{41}" "\u{46}") (re.union (re.range "\u{61}" "\u{66}") (re.range "\u{30}" "\u{39}")))    (re.union (re.range "\u{41}" "\u{46}") (re.union (re.range "\u{61}" "\u{66}") (re.range "\u{30}" "\u{39}"))))))))))) ) (re.opt  (re.++  (str.to.re "\u{2f}")  (re.union  (re.range "\u{30}" "\u{39}")  (re.++ (re.range "\u{30}" "\u{39}")   (re.range "\u{30}" "\u{39}")))) ))))) (re.union  (re.++  (str.to.re "\u{61}") (re.++ (re.opt  (re.++  (str.to.re "\u{3a}") (re.++  (re.union (re.range "\u{30}" "\u{39}") (re.union (re.range "\u{41}" "\u{5a}") (re.range "\u{61}" "\u{7a}"))) (re.++ (re.opt  (re.++ (re.*  (re.union (re.range "\u{30}" "\u{39}") (re.union  (str.to.re "\u{2d}") (re.union (re.range "\u{41}" "\u{5a}") (re.range "\u{61}" "\u{7a}")))) )  (re.union (re.range "\u{30}" "\u{39}") (re.union (re.range "\u{41}" "\u{5a}") (re.range "\u{61}" "\u{7a}")))) ) (re.+  (re.++  (str.to.re "\u{2e}") (re.++  (re.union (re.range "\u{30}" "\u{39}") (re.union (re.range "\u{41}" "\u{5a}") (re.range "\u{61}" "\u{7a}"))) (re.opt  (re.++ (re.*  (re.union (re.range "\u{30}" "\u{39}") (re.union  (str.to.re "\u{2d}") (re.union (re.range "\u{41}" "\u{5a}") (re.range "\u{61}" "\u{7a}")))) )  (re.union (re.range "\u{30}" "\u{39}") (re.union (re.range "\u{41}" "\u{5a}") (re.range "\u{61}" "\u{7a}")))) ))) )))) ) (re.opt  (re.++  (str.to.re "\u{2f}")  (re.union  (re.range "\u{30}" "\u{39}")  (re.++ (re.range "\u{30}" "\u{39}")   (re.range "\u{30}" "\u{39}")))) ))) (re.union  (re.++  (str.to.re "\u{6d}") (re.++  (str.to.re "\u{78}") (re.++ (re.opt  (re.++  (str.to.re "\u{3a}") (re.++  (re.union (re.range "\u{30}" "\u{39}") (re.union (re.range "\u{41}" "\u{5a}") (re.range "\u{61}" "\u{7a}"))) (re.++ (re.opt  (re.++ (re.*  (re.union (re.range "\u{30}" "\u{39}") (re.union  (str.to.re "\u{2d}") (re.union (re.range "\u{41}" "\u{5a}") (re.range "\u{61}" "\u{7a}")))) )  (re.union (re.range "\u{30}" "\u{39}") (re.union (re.range "\u{41}" "\u{5a}") (re.range "\u{61}" "\u{7a}")))) ) (re.+  (re.++  (str.to.re "\u{2e}") (re.++  (re.union (re.range "\u{30}" "\u{39}") (re.union (re.range "\u{41}" "\u{5a}") (re.range "\u{61}" "\u{7a}"))) (re.opt  (re.++ (re.*  (re.union (re.range "\u{30}" "\u{39}") (re.union  (str.to.re "\u{2d}") (re.union (re.range "\u{41}" "\u{5a}") (re.range "\u{61}" "\u{7a}")))) )  (re.union (re.range "\u{30}" "\u{39}") (re.union (re.range "\u{41}" "\u{5a}") (re.range "\u{61}" "\u{7a}")))) ))) )))) ) (re.opt  (re.++  (str.to.re "\u{2f}")  (re.union  (re.range "\u{30}" "\u{39}")  (re.++ (re.range "\u{30}" "\u{39}")   (re.range "\u{30}" "\u{39}")))) )))) (re.union  (re.++  (str.to.re "\u{70}") (re.++  (str.to.re "\u{74}") (re.++  (str.to.re "\u{72}")  (re.++  (str.to.re "\u{3a}") (re.++  (re.union (re.range "\u{30}" "\u{39}") (re.union (re.range "\u{41}" "\u{5a}") (re.range "\u{61}" "\u{7a}"))) (re.++ (re.opt  (re.++ (re.*  (re.union (re.range "\u{30}" "\u{39}") (re.union  (str.to.re "\u{2d}") (re.union (re.range "\u{41}" "\u{5a}") (re.range "\u{61}" "\u{7a}")))) )  (re.union (re.range "\u{30}" "\u{39}") (re.union (re.range "\u{41}" "\u{5a}") (re.range "\u{61}" "\u{7a}")))) ) (re.+  (re.++  (str.to.re "\u{2e}") (re.++  (re.union (re.range "\u{30}" "\u{39}") (re.union (re.range "\u{41}" "\u{5a}") (re.range "\u{61}" "\u{7a}"))) (re.opt  (re.++ (re.*  (re.union (re.range "\u{30}" "\u{39}") (re.union  (str.to.re "\u{2d}") (re.union (re.range "\u{41}" "\u{5a}") (re.range "\u{61}" "\u{7a}")))) )  (re.union (re.range "\u{30}" "\u{39}") (re.union (re.range "\u{41}" "\u{5a}") (re.range "\u{61}" "\u{7a}")))) ))) ))))))) (re.union  (re.++  (str.to.re "\u{65}") (re.++  (str.to.re "\u{78}") (re.++  (str.to.re "\u{69}") (re.++  (str.to.re "\u{73}") (re.++  (str.to.re "\u{74}") (re.++  (str.to.re "\u{73}")  (re.++  (str.to.re "\u{3a}") (re.++  (re.union (re.range "\u{30}" "\u{39}") (re.union (re.range "\u{41}" "\u{5a}") (re.range "\u{61}" "\u{7a}"))) (re.++ (re.opt  (re.++ (re.*  (re.union (re.range "\u{30}" "\u{39}") (re.union  (str.to.re "\u{2d}") (re.union (re.range "\u{41}" "\u{5a}") (re.range "\u{61}" "\u{7a}")))) )  (re.union (re.range "\u{30}" "\u{39}") (re.union (re.range "\u{41}" "\u{5a}") (re.range "\u{61}" "\u{7a}")))) ) (re.+  (re.++  (str.to.re "\u{2e}") (re.++  (re.union (re.range "\u{30}" "\u{39}") (re.union (re.range "\u{41}" "\u{5a}") (re.range "\u{61}" "\u{7a}"))) (re.opt  (re.++ (re.*  (re.union (re.range "\u{30}" "\u{39}") (re.union  (str.to.re "\u{2d}") (re.union (re.range "\u{41}" "\u{5a}") (re.range "\u{61}" "\u{7a}")))) )  (re.union (re.range "\u{30}" "\u{39}") (re.union (re.range "\u{41}" "\u{5a}") (re.range "\u{61}" "\u{7a}")))) ))) )))))))))) (re.union  (re.++  (str.to.re "\u{69}") (re.++  (str.to.re "\u{6e}") (re.++  (str.to.re "\u{63}") (re.++  (str.to.re "\u{6c}") (re.++  (str.to.re "\u{75}") (re.++  (str.to.re "\u{64}") (re.++  (str.to.re "\u{65}")  (re.++  (str.to.re "\u{3a}") (re.++  (re.union (re.range "\u{30}" "\u{39}") (re.union (re.range "\u{41}" "\u{5a}") (re.range "\u{61}" "\u{7a}"))) (re.++ (re.opt  (re.++ (re.*  (re.union (re.range "\u{30}" "\u{39}") (re.union  (str.to.re "\u{2d}") (re.union (re.range "\u{41}" "\u{5a}") (re.range "\u{61}" "\u{7a}")))) )  (re.union (re.range "\u{30}" "\u{39}") (re.union (re.range "\u{41}" "\u{5a}") (re.range "\u{61}" "\u{7a}")))) ) (re.+  (re.++  (str.to.re "\u{2e}") (re.++  (re.union (re.range "\u{30}" "\u{39}") (re.union (re.range "\u{41}" "\u{5a}") (re.range "\u{61}" "\u{7a}"))) (re.opt  (re.++ (re.*  (re.union (re.range "\u{30}" "\u{39}") (re.union  (str.to.re "\u{2d}") (re.union (re.range "\u{41}" "\u{5a}") (re.range "\u{61}" "\u{7a}")))) )  (re.union (re.range "\u{30}" "\u{39}") (re.union (re.range "\u{41}" "\u{5a}") (re.range "\u{61}" "\u{7a}")))) ))) ))))))))))) (re.union  (re.++  (str.to.re "\u{72}") (re.++  (str.to.re "\u{65}") (re.++  (str.to.re "\u{64}") (re.++  (str.to.re "\u{69}") (re.++  (str.to.re "\u{72}") (re.++  (str.to.re "\u{65}") (re.++  (str.to.re "\u{63}") (re.++  (str.to.re "\u{74}")  (re.++  (str.to.re "\u{3a}") (re.++  (re.union (re.range "\u{30}" "\u{39}") (re.union (re.range "\u{41}" "\u{5a}") (re.range "\u{61}" "\u{7a}"))) (re.++ (re.opt  (re.++ (re.*  (re.union (re.range "\u{30}" "\u{39}") (re.union  (str.to.re "\u{2d}") (re.union (re.range "\u{41}" "\u{5a}") (re.range "\u{61}" "\u{7a}")))) )  (re.union (re.range "\u{30}" "\u{39}") (re.union (re.range "\u{41}" "\u{5a}") (re.range "\u{61}" "\u{7a}")))) ) (re.+  (re.++  (str.to.re "\u{2e}") (re.++  (re.union (re.range "\u{30}" "\u{39}") (re.union (re.range "\u{41}" "\u{5a}") (re.range "\u{61}" "\u{7a}"))) (re.opt  (re.++ (re.*  (re.union (re.range "\u{30}" "\u{39}") (re.union  (str.to.re "\u{2d}") (re.union (re.range "\u{41}" "\u{5a}") (re.range "\u{61}" "\u{7a}")))) )  (re.union (re.range "\u{30}" "\u{39}") (re.union (re.range "\u{41}" "\u{5a}") (re.range "\u{61}" "\u{7a}")))) ))) ))))))))))))  (re.++  (str.to.re "\u{65}") (re.++  (str.to.re "\u{78}") (re.++  (str.to.re "\u{70}")  (re.++  (str.to.re "\u{3a}") (re.++  (re.union (re.range "\u{30}" "\u{39}") (re.union (re.range "\u{41}" "\u{5a}") (re.range "\u{61}" "\u{7a}"))) (re.++ (re.opt  (re.++ (re.*  (re.union (re.range "\u{30}" "\u{39}") (re.union  (str.to.re "\u{2d}") (re.union (re.range "\u{41}" "\u{5a}") (re.range "\u{61}" "\u{7a}")))) )  (re.union (re.range "\u{30}" "\u{39}") (re.union (re.range "\u{41}" "\u{5a}") (re.range "\u{61}" "\u{7a}")))) ) (re.+  (re.++  (str.to.re "\u{2e}") (re.++  (re.union (re.range "\u{30}" "\u{39}") (re.union (re.range "\u{41}" "\u{5a}") (re.range "\u{61}" "\u{7a}"))) (re.opt  (re.++ (re.*  (re.union (re.range "\u{30}" "\u{39}") (re.union  (str.to.re "\u{2d}") (re.union (re.range "\u{41}" "\u{5a}") (re.range "\u{61}" "\u{7a}")))) )  (re.union (re.range "\u{30}" "\u{39}") (re.union (re.range "\u{41}" "\u{5a}") (re.range "\u{61}" "\u{7a}")))) ))) )))))))))))))))) ) ))) ) (re.+  (re.union  (str.to.re "\u{20}")  (str.to_re "\u{09}")) ) )))
(check-sat)
(get-model)