TCS_Benchmarks/redos_fix/regexlib2_output_distinct_2920_2919_0_0.txt
([ \t]+[+\-~?]?(((((all)|(ip4([:][0-9]{1,3}\.[0-9]{1,3}\.[0-9]{1,3}\.[0-9]{1,3})?(\/[0-9]{1,2})?)|(ip6([:]([A-Fa-f0-9]{1,4}:){7}[A-Fa-f0-9]{1,4})?(\/[0-9]{1,2})?)|(a([:][0-9A-Za-z]([0-9\-A-Za-z]*[0-9A-Za-z])?(\.[0-9A-Za-z]([0-9\-A-Za-z]*[0-9A-Za-z])?)+)?(\/[0-9]{1,2})?)|(mx([:][0-9A-Za-z]([0-9\-A-Za-z]*[0-9A-Za-z])?(\.[0-9A-Za-z]([0-9\-A-Za-z]*[0-9A-Za-z])?)+)?(\/[0-9]{1,2})?)|(ptr([:][0-9A-Za-z]([0-9\-A-Za-z]*[0-9A-Za-z])?(\.[0-9A-Za-z]([0-9\-A-Za-z]*[0-9A-Za-z])?)+))|(exists([:][0-9A-Za-z]([0-9\-A-Za-z]*[0-9A-Za-z])?(\.[0-9A-Za-z]([0-9\-A-Za-z]*[0-9A-Za-z])?)+))|(include([:][0-9A-Za-z]([0-9\-A-Za-z]*[0-9A-Za-z])?(\.[0-9A-Za-z]([0-9\-A-Za-z]*[0-9A-Za-z])?)+))|(redirect([:][0-9A-Za-z]([0-9\-A-Za-z]*[0-9A-Za-z])?(\.[0-9A-Za-z]([0-9\-A-Za-z]*[0-9A-Za-z])?)+))|(exp([:][0-9A-Za-z]([0-9\-A-Za-z]*[0-9A-Za-z])?(\.[0-9A-Za-z]([0-9\-A-Za-z]*[0-9A-Za-z])?)+)))?))??))*
[ \t]+